results/heuristics/cvrp_hgs/Vrp-Set-A-n32/Vrp-Set-A-n32-hgs/0.hgs1.vrp
NAME : 0
COMMENT : CVRP Instance
TYPE : CVRP
DIMENSION : 32
EDGE_WEIGHT_TYPE : EUC_2D
CAPACITY : 100
NODE_COORD_SECTION
1	0.082	0.076
2	0.096	0.044
3	0.05	0.005
4	0.049	0.008
5	0.013	0.007
6	0.029	0.089
7	0.058	0.03
8	0.084	0.039
9	0.014	0.024
10	0.002	0.039
11	0.003	0.082
12	0.005	0.01
13	0.098	0.052
14	0.084	0.025
15	0.061	0.059
16	0.001	0.065
17	0.088	0.051
18	0.091	0.002
19	0.019	0.032
20	0.093	0.003
21	0.05	0.093
22	0.098	0.014
23	0.005	0.042
24	0.042	0.009
25	0.061	0.062
26	0.009	0.097
27	0.08	0.055
28	0.057	0.069
29	0.023	0.015
30	0.02	0.07
31	0.085	0.06
32	0.098	0.005
DEMAND_SECTION
1	0
2	19
3	21
4	6
5	19
6	7
7	12
8	16
9	6
10	16
11	8
12	14
13	21
14	16
15	3
16	22
17	18
18	19
19	1
20	24
21	8
22	12
23	4
24	8
25	24
26	24
27	2
28	20
29	15
30	2
31	14
32	9
DEPOT_SECTION
1
-1
EOF
