results/heuristics/cvrp_hgs/Vrp-Set-A-n32/Vrp-Set-A-n32-hgs/0.hgs1.log
=========== Algorithm Parameters =================
---- nbGranular        is set to 20
---- mu                is set to 25
---- lambda            is set to 40
---- nbElite           is set to 4
---- nbClose           is set to 5
---- targetFeasible    is set to 0.2
---- seed              is set to 1234
---- nbIter            is set to 20000
---- timeLimit         is set to 0
---- useSwapStar       is set to 1
==================================================
----- READING INSTANCE: ../../results/heuristics/cvrp_hgs/Vrp-Set-A-n32/Vrp-Set-A-n32-hgs/0.hgs1.vrp
----- FLEET SIZE WAS NOT SPECIFIED: DEFAULT INITIALIZATION TO 9 VEHICLES
----- INSTANCE SUCCESSFULLY LOADED WITH 31 CLIENTS AND 9 VEHICLES
----- BUILDING INITIAL POPULATION
----- STARTING GENETIC ALGORITHM
It      0      2 | T(s) 0.02 | Feas 60 0.79 0.80 | NO-INFEASIBLE | Div 0.22 -1.00 | Feas 1.00 1.00 | Pen 0.10 0.85
It    500    502 | T(s) 0.10 | Feas 27 0.79 0.83 | NO-INFEASIBLE | Div 0.44 -1.00 | Feas 1.00 1.00 | Pen 0.10 0.38
It   1000   1002 | T(s) 0.17 | Feas 35 0.79 0.82 | NO-INFEASIBLE | Div 0.40 -1.00 | Feas 1.00 1.00 | Pen 0.10 0.17
It   1500   1502 | T(s) 0.24 | Feas 43 0.79 0.81 | NO-INFEASIBLE | Div 0.33 -1.00 | Feas 1.00 1.00 | Pen 0.10 0.10
It   2000   2002 | T(s) 0.31 | Feas 51 0.79 0.81 | NO-INFEASIBLE | Div 0.30 -1.00 | Feas 1.00 1.00 | Pen 0.10 0.10
It   2500   2502 | T(s) 0.38 | Feas 59 0.79 0.80 | NO-INFEASIBLE | Div 0.26 -1.00 | Feas 1.00 1.00 | Pen 0.10 0.10
It   3000   3002 | T(s) 0.45 | Feas 26 0.79 0.83 | NO-INFEASIBLE | Div 0.48 -1.00 | Feas 1.00 1.00 | Pen 0.10 0.10
It   3500   3502 | T(s) 0.55 | Feas 34 0.79 0.82 | NO-INFEASIBLE | Div 0.40 -1.00 | Feas 1.00 1.00 | Pen 0.10 0.10
It   4000   4002 | T(s) 0.66 | Feas 42 0.79 0.81 | NO-INFEASIBLE | Div 0.33 -1.00 | Feas 1.00 1.00 | Pen 0.10 0.10
It   4500   4502 | T(s) 0.74 | Feas 50 0.79 0.81 | NO-INFEASIBLE | Div 0.34 -1.00 | Feas 1.00 1.00 | Pen 0.10 0.10
It   5000   5002 | T(s) 0.81 | Feas 58 0.79 0.79 | NO-INFEASIBLE | Div 0.22 -1.00 | Feas 1.00 1.00 | Pen 0.10 0.10
It   5500   5502 | T(s) 0.88 | Feas 25 0.79 0.84 | NO-INFEASIBLE | Div 0.50 -1.00 | Feas 1.00 1.00 | Pen 0.10 0.10
It   6000   6002 | T(s) 0.95 | Feas 33 0.79 0.82 | NO-INFEASIBLE | Div 0.40 -1.00 | Feas 1.00 1.00 | Pen 0.10 0.10
It   6500   6502 | T(s) 1.02 | Feas 41 0.79 0.81 | NO-INFEASIBLE | Div 0.36 -1.00 | Feas 1.00 1.00 | Pen 0.10 0.10
It   7000   7002 | T(s) 1.09 | Feas 49 0.79 0.81 | NO-INFEASIBLE | Div 0.29 -1.00 | Feas 1.00 1.00 | Pen 0.10 0.10
It   7500   7502 | T(s) 1.16 | Feas 57 0.79 0.80 | NO-INFEASIBLE | Div 0.25 -1.00 | Feas 1.00 1.00 | Pen 0.10 0.10
It   8000   8002 | T(s) 1.24 | Feas 65 0.79 0.79 | NO-INFEASIBLE | Div 0.16 -1.00 | Feas 1.00 1.00 | Pen 0.10 0.10
It   8500   8502 | T(s) 1.31 | Feas 32 0.79 0.82 | NO-INFEASIBLE | Div 0.42 -1.00 | Feas 1.00 1.00 | Pen 0.10 0.10
It   9000   9002 | T(s) 1.38 | Feas 40 0.79 0.81 | NO-INFEASIBLE | Div 0.35 -1.00 | Feas 1.00 1.00 | Pen 0.10 0.10
It   9500   9502 | T(s) 1.45 | Feas 48 0.79 0.80 | NO-INFEASIBLE | Div 0.29 -1.00 | Feas 1.00 1.00 | Pen 0.10 0.10
It  10000  10002 | T(s) 1.52 | Feas 56 0.79 0.81 | NO-INFEASIBLE | Div 0.31 -1.00 | Feas 1.00 1.00 | Pen 0.10 0.10
It  10500  10502 | T(s) 1.59 | Feas 64 0.79 0.79 | NO-INFEASIBLE | Div 0.15 -1.00 | Feas 1.00 1.00 | Pen 0.10 0.10
It  11000  11002 | T(s) 1.67 | Feas 31 0.79 0.82 | NO-INFEASIBLE | Div 0.45 -1.00 | Feas 1.00 1.00 | Pen 0.10 0.10
It  11500  11502 | T(s) 1.74 | Feas 39 0.79 0.81 | NO-INFEASIBLE | Div 0.37 -1.00 | Feas 1.00 1.00 | Pen 0.10 0.10
It  12000  12002 | T(s) 1.81 | Feas 47 0.79 0.81 | NO-INFEASIBLE | Div 0.35 -1.00 | Feas 1.00 1.00 | Pen 0.10 0.10
It  12500  12502 | T(s) 1.88 | Feas 55 0.79 0.80 | NO-INFEASIBLE | Div 0.27 -1.00 | Feas 1.00 1.00 | Pen 0.10 0.10
It  13000  13002 | T(s) 1.95 | Feas 63 0.79 0.80 | NO-INFEASIBLE | Div 0.24 -1.00 | Feas 1.00 1.00 | Pen 0.10 0.10
It  13500  13502 | T(s) 2.02 | Feas 30 0.79 0.82 | NO-INFEASIBLE | Div 0.44 -1.00 | Feas 1.00 1.00 | Pen 0.10 0.10
It  14000  14002 | T(s) 2.09 | Feas 38 0.79 0.81 | NO-INFEASIBLE | Div 0.38 -1.00 | Feas 1.00 1.00 | Pen 0.10 0.10
It  14500  14502 | T(s) 2.16 | Feas 46 0.79 0.81 | NO-INFEASIBLE | Div 0.31 -1.00 | Feas 1.00 1.00 | Pen 0.10 0.10
It  15000  15002 | T(s) 2.23 | Feas 54 0.79 0.81 | NO-INFEASIBLE | Div 0.31 -1.00 | Feas 1.00 1.00 | Pen 0.10 0.10
It  15500  15502 | T(s) 2.30 | Feas 62 0.79 0.80 | NO-INFEASIBLE | Div 0.25 -1.00 | Feas 1.00 1.00 | Pen 0.10 0.10
It  16000  16002 | T(s) 2.38 | Feas 29 0.79 0.82 | NO-INFEASIBLE | Div 0.44 -1.00 | Feas 1.00 1.00 | Pen 0.10 0.10
It  16500  16502 | T(s) 2.45 | Feas 37 0.79 0.81 | NO-INFEASIBLE | Div 0.37 -1.00 | Feas 1.00 1.00 | Pen 0.10 0.10
It  17000  17002 | T(s) 2.51 | Feas 45 0.79 0.81 | NO-INFEASIBLE | Div 0.32 -1.00 | Feas 1.00 1.00 | Pen 0.10 0.10
It  17500  17502 | T(s) 2.58 | Feas 53 0.79 0.80 | NO-INFEASIBLE | Div 0.27 -1.00 | Feas 1.00 1.00 | Pen 0.10 0.10
It  18000  18002 | T(s) 2.66 | Feas 61 0.79 0.80 | NO-INFEASIBLE | Div 0.25 -1.00 | Feas 1.00 1.00 | Pen 0.10 0.10
It  18500  18502 | T(s) 2.73 | Feas 28 0.79 0.82 | NO-INFEASIBLE | Div 0.45 -1.00 | Feas 1.00 1.00 | Pen 0.10 0.10
It  19000  19002 | T(s) 2.80 | Feas 36 0.79 0.82 | NO-INFEASIBLE | Div 0.38 -1.00 | Feas 1.00 1.00 | Pen 0.10 0.10
It  19500  19502 | T(s) 2.87 | Feas 44 0.79 0.81 | NO-INFEASIBLE | Div 0.31 -1.00 | Feas 1.00 1.00 | Pen 0.10 0.10
----- GENETIC ALGORITHM FINISHED AFTER 20000 ITERATIONS. TIME SPENT: 2.93726
----- WRITING BEST SOLUTION IN : ../../results/heuristics/cvrp_hgs/Vrp-Set-A-n32/Vrp-Set-A-n32-hgs/0.hgs1.tour
