results/heuristics/cvrp_hgs/Vrp-Set-A-n32/Vrp-Set-A-n32-hgs/0.hgs1.tour
Route #1: 18 8 9 22 15 29 10 25 5 20
Route #2: 24 27
Route #3: 14 28 11 4 23 2 3 6
Route #4: 21 31 19 17 13 7 26
Route #5: 30 16 1 12
Cost 0.787082
